
Value of objective function: 0

Actual values of the variables:
pL1_div_from_law                0
comp_pos0                       0
comp_neg0                       0
comp_pos1                       0
comp_neg1                       0
comp_pos2                       0
comp_neg2                       0
comp_pos3                       0
comp_neg3                       0
comp_pos4                       0
comp_neg4                       0
comp_pos5                       0
comp_neg5                       0
comp_pos6                       0
comp_neg6                       0
comp_pos7                       0
comp_neg7                       0
comp_pos8                       0
comp_neg8                       0
comp_pos9                       0
comp_neg9                       0
comp_pos10                      0
comp_neg10                      0
comp_pos11                      0
comp_neg11                      0
comp_pos12                      0
comp_neg12                      0
comp_pos13                      0
comp_neg13                      0
z_c0_t0               1.32138e+10
p0_c0_t0              3.69168e+09
p1_c0_t0              3.43551e+09
p2_c0_t0              5.86849e+09
p3_c0_t0              2.18154e+08
diff0                           0
normdiff0                       0
z_c0_t1               1.47752e+10
p0_c0_t1              3.17579e+09
p1_c0_t1              3.77635e+09
p2_c0_t1              7.03661e+09
p3_c0_t1              7.86443e+08
diff1                           0
normdiff1                       0
z_c1_t0               1.65566e+10
p0_c1_t0              3.76987e+09
p1_c1_t0              4.41433e+09
p2_c1_t0              8.19648e+09
p3_c1_t0              1.75899e+08
diff2                           0
normdiff2                       0
z_c1_t1               1.94959e+10
p0_c1_t1              3.76129e+09
p1_c1_t1               6.1556e+09
p2_c1_t1              9.42631e+09
p3_c1_t1              1.52682e+08
diff3                           0
normdiff3                       0
z_c2_t0               7.24754e+09
p0_c2_t0               1.2735e+09
p1_c2_t0              1.80134e+09
p2_c2_t0              4.01721e+09
p3_c2_t0              1.55491e+08
diff4                           0
normdiff4                       0
z_c2_t1               7.97123e+09
p0_c2_t1              1.03372e+09
p1_c2_t1              2.08448e+09
p2_c2_t1              4.74953e+09
p3_c2_t1              1.03498e+08
diff5                           0
normdiff5                       0
z_c3_t0               1.22612e+10
p0_c3_t0              2.30407e+09
p1_c3_t0               3.0796e+09
p2_c3_t0              6.21958e+09
p3_c3_t0              6.57935e+08
diff6                           0
normdiff6                       0
z_c3_t1               1.42798e+10
p0_c3_t1              2.58007e+09
p1_c3_t1              3.12234e+09
p2_c3_t1               8.1307e+09
p3_c3_t1              4.46665e+08
diff7                           0
normdiff7                       0
z_c4_t0               7.97197e+09
p0_c4_t0              1.01696e+09
p1_c4_t0               3.4461e+09
p2_c4_t0              3.44107e+09
p3_c4_t0              6.78432e+07
diff8                           0
normdiff8                       0
z_c4_t1                8.9819e+09
p0_c4_t1              1.05148e+09
p1_c4_t1              3.14089e+09
p2_c4_t1              4.65954e+09
p3_c4_t1              1.29996e+08
diff9                           0
normdiff9                       0
z_c5_t0               1.00642e+10
p0_c5_t0              1.79337e+09
p1_c5_t0              2.90772e+09
p2_c5_t0              5.31274e+09
p3_c5_t0              5.03208e+07
diff10                          0
normdiff10                      0
z_c5_t1                1.2016e+10
p0_c5_t1              1.31002e+09
p1_c5_t1              2.85137e+09
p2_c5_t1              7.64067e+09
p3_c5_t1              2.13952e+08
diff11                          0
normdiff11                      0
z_c6_t0               1.81204e+10
p0_c6_t0              3.27455e+09
p1_c6_t0              3.67343e+09
p2_c6_t0              1.10027e+10
p3_c6_t0              1.69629e+08
diff12                          0
normdiff12                      0
z_c6_t1               2.06345e+10
p0_c6_t1              3.48583e+09
p1_c6_t1              3.33333e+09
p2_c6_t1              1.36336e+10
p3_c6_t1               1.8173e+08
diff13                          0
normdiff13                      0
